c b=3,c=569
p cnf 15 37
3 -6 0
1 2 3 -9 0
2 3 -10 0
1 3 -11 0
3 -15 0
-3 6 0
1 2 -3 9 0
1 -3 10 0
1 2 -3 11 0
-3 15 0
2 -5 0
1 2 -8 0
1 2 -12 0
2 -14 0
-2 3 9 0
3 -12 0
-2 -3 -9 0
-2 -3 12 0
-2 5 0
1 -2 8 0
1 -2 10 0
1 -2 -11 0
-2 14 0
1 -4 0
1 -7 0
1 -13 0
-1 3 9 0
-1 -3 -9 0
-1 -3 12 0
-1 2 8 0
-1 2 -11 0
-1 -2 -8 0
-1 -2 11 0
-1 4 0
-1 7 0
-1 -10 0
-1 13 0
